proyfinal/src/viki/013/andrea/andrea-localstore/experimentInOfficeAgust.take6/worker_3/6730fafd-3ca0-4576-833a-c949c9f41f89.als.cnf.out
Reading from standard input... Use '--help' for help.
============================[ Problem Statistics ]=============================
|                                                                             |
|  Number of variables:         87638                                         |
|  Number of clauses:          161767                                         |
|  Parse time:                   0.04 s                                       |
|                                                                             |
============================[ Search Statistics ]==============================
| Conflicts |          ORIGINAL         |          LEARNT          | Progress |
|           |    Vars  Clauses Literals |    Limit  Clauses Lit/Cl |          |
===============================================================================
|       100 |   62363   105143   262668 |    38552      100     54 | 28.840 % |
|       250 |   62304   104901   262110 |    42407      247     35 | 28.908 % |
|       475 |   62304   104901   262110 |    46648      472     42 | 28.908 % |
|       812 |   62304   104901   262110 |    51313      809     57 | 28.908 % |
|      1318 |   62304   104901   262110 |    56444     1315     80 | 28.908 % |
|      2077 |   62300   104885   262066 |    62089     2047     72 | 28.912 % |
|      3216 |   49901   104841   261976 |    68297     3180     77 | 43.060 % |
|      4924 |   49302    67293   169146 |    75127     4798     69 | 43.744 % |
|      7486 |   49139    67285   169130 |    82640     7356     61 | 43.930 % |
|     11330 |   48849    65408   164571 |    90904    10732     54 | 44.260 % |
===============================================================================
restarts              : 61
conflicts             : 13721          (8588 /sec)
decisions             : 39975          (0.00 % random) (25021 /sec)
propagations          : 19002446       (11893953 /sec)
conflict literals     : 681581         (46.34 % deleted)
Memory used           : 28.07 MB
CPU time              : 1.59766 s

UNSATISFIABLE
